c uprop, v00.0, 
c reading from data/prog250.c.cnf
c done reading: 0.002276
p cnf 99 393
-54 -55 0
54 55 0
-58 -60 0
58 60 0
-63 -64 0
63 64 0
-59 -66 0
59 66 0
-67 -69 0
67 69 0
54 -70 0
-54 70 0
-58 71 0
58 -71 0
58 -71 -72 0
-71 -72 0
-58 71 72 0
71 72 0
51 -63 0
51 -63 -71 0
51 -71 0
-51 63 71 0
-50 -51 63 0
-50 -51 71 0
50 51 -63 0
50 51 0
50 51 -71 0
50 -63 -71 0
49 -54 -66 0
49 -51 -66 0
49 -51 -54 0
-49 54 66 0
-49 51 66 0
-49 51 54 0
-48 -49 66 0
-48 -49 54 0
-48 -49 51 0
48 49 -66 0
48 49 -54 0
48 49 -51 0
48 -51 -54 -66 0
-48 51 54 66 0
47 -58 -69 0
47 -49 -69 0
47 -49 -58 0
-47 58 69 0
-47 49 69 0
-47 49 58 0
-46 -47 69 0
-46 -47 58 0
-46 -47 49 0
46 47 -69 0
46 47 -58 0
46 47 -49 0
46 -49 -58 -69 0
-46 49 58 69 0
-45 63 0
-45 47 0
45 -47 -63 0
-44 -47 -63 0
-44 47 63 0
44 47 -63 0
44 -47 63 0
-43 66 0
-43 45 0
43 -45 -66 0
-42 -45 -66 0
-42 45 66 0
42 45 -66 0
42 -45 66 0
-41 69 0
-41 43 0
41 -43 -69 0
-43 -52 -69 0
43 -52 69 0
43 52 -69 0
-43 52 69 0
-39 -70 0
39 70 0
-37 -72 0
37 72 0
-35 -50 0
35 50 0
-33 -48 0
33 48 0
-46 -73 0
46 73 0
-44 -74 0
44 74 0
-42 -75 0
42 75 0
-52 -76 0
52 76 0
-41 -77 0
41 77 0
-40 -78 0
-78 -80 0
40 78 80 0
40 80 -81 0
-40 -80 -81 0
-40 80 81 0
40 -80 81 0
78 -82 0
-38 -82 0
38 -78 82 0
38 -78 -83 0
-38 78 -83 0
38 78 83 0
-38 -78 83 0
82 -84 0
-84 -86 0
-82 84 86 0
-82 86 -87 0
82 -86 -87 0
82 86 87 0
-82 -86 87 0
84 -88 0
-36 -88 0
36 -84 88 0
36 -84 -89 0
-36 84 -89 0
36 84 89 0
-36 -84 89 0
88 -90 0
-90 -92 0
-88 90 92 0
-88 92 -93 0
88 -92 -93 0
88 92 93 0
-88 -92 93 0
90 -94 0
-34 -94 0
34 -90 94 0
34 -90 -95 0
-34 90 -95 0
34 90 95 0
-34 -90 95 0
-56 94 0
-56 -97 0
56 -94 97 0
-94 97 -98 0
94 -97 -98 0
94 97 98 0
-94 -97 98 0
-61 80 0
40 -61 0
-40 61 -80 0
-40 -80 -99 0
40 80 -99 0
40 -80 99 0
-40 80 99 0
-38 65 -80 0
-38 -61 65 0
-61 65 -80 0
38 -65 80 0
38 61 -65 0
61 -65 80 0
-32 38 -65 0
-32 -65 80 0
-32 61 -65 0
32 -38 65 0
32 65 -80 0
32 -61 65 0
32 -38 -61 -80 0
-32 38 61 80 0
31 -38 -86 0
31 -65 -86 0
31 -38 -65 0
-31 38 86 0
-31 65 86 0
-31 38 65 0
-30 -31 86 0
-30 -31 38 0
-30 -31 65 0
30 31 -86 0
30 31 -38 0
30 31 -65 0
30 -38 -65 -86 0
-30 38 65 86 0
29 -36 -86 0
29 -31 -36 0
29 -31 -86 0
-29 36 86 0
-29 31 36 0
-29 31 86 0
-28 -29 36 0
-28 -29 86 0
-28 -29 31 0
28 29 -36 0
28 29 -86 0
28 29 -31 0
28 -31 -36 -86 0
-28 31 36 86 0
27 -36 -92 0
27 -29 -92 0
27 -29 -36 0
-27 36 92 0
-27 29 92 0
-27 29 36 0
-26 -27 92 0
-26 -27 36 0
-26 -27 29 0
26 27 -92 0
26 27 -36 0
26 27 -29 0
26 -29 -36 -92 0
-26 29 36 92 0
25 -34 -92 0
25 -27 -34 0
25 -27 -92 0
-25 34 92 0
-25 27 34 0
-25 27 92 0
-24 -25 34 0
-24 -25 92 0
-24 -25 27 0
24 25 -34 0
24 25 -92 0
24 25 -27 0
24 -27 -34 -92 0
-24 27 34 92 0
23 -34 -97 0
23 -25 -97 0
23 -25 -34 0
-23 34 97 0
-23 25 97 0
-23 25 34 0
-22 -23 97 0
-22 -23 34 0
-22 -23 25 0
22 23 -97 0
22 23 -34 0
22 23 -25 0
22 -25 -34 -97 0
-22 25 34 97 0
-21 97 0
-21 23 0
21 -23 -97 0
-20 -23 -97 0
-20 23 97 0
20 23 -97 0
20 -23 97 0
-19 -40 0
-19 -99 0
19 40 99 0
-18 40 99 0
-18 -40 -99 0
18 -40 99 0
18 40 -99 0
-17 19 0
-17 -32 0
17 -19 32 0
-16 -19 32 0
-16 19 -32 0
16 19 32 0
16 -19 -32 0
-15 17 0
-15 -30 0
15 -17 30 0
-14 -17 30 0
-14 17 -30 0
14 17 30 0
14 -17 -30 0
-13 15 0
-13 -28 0
13 -15 28 0
-12 -15 28 0
-12 15 -28 0
12 15 28 0
12 -15 -28 0
-11 13 0
-11 -26 0
11 -13 26 0
-10 -13 26 0
-10 13 -26 0
10 13 26 0
10 -13 -26 0
-9 11 0
-9 -24 0
9 -11 24 0
-8 -11 24 0
-8 11 -24 0
8 11 24 0
8 -11 -24 0
-7 9 0
-7 -22 0
7 -9 22 0
-6 -9 22 0
-6 9 -22 0
6 9 22 0
6 -9 -22 0
-5 7 0
-5 -20 0
5 -7 20 0
-4 -7 20 0
-4 7 -20 0
4 7 20 0
4 -7 -20 0
5 -53 0
-21 -53 0
-5 21 53 0
-5 21 -57 0
5 -21 -57 0
5 21 57 0
-5 -21 57 0
-62 70 0
40 -62 0
-40 62 -70 0
40 -70 0
-40 70 0
68 -72 -99 0
-62 68 -72 0
-62 68 -99 0
-68 72 99 0
62 -68 72 0
62 -68 99 0
-68 72 0
-68 99 0
62 -68 0
62 72 99 0
-32 -50 79 0
-50 -68 79 0
-32 -68 79 0
32 50 -79 0
50 68 -79 0
32 68 -79 0
50 -79 0
32 -79 0
68 -79 0
32 50 68 0
-30 -48 85 0
-48 -79 85 0
-30 -79 85 0
30 48 -85 0
48 79 -85 0
30 79 -85 0
48 -85 0
30 -85 0
79 -85 0
30 48 79 0
-28 -46 91 0
-46 -85 91 0
-28 -85 91 0
28 46 -91 0
46 85 -91 0
28 85 -91 0
-46 91 0
-28 91 0
-85 91 0
-28 -46 -85 0
-26 -44 96 0
-44 -91 96 0
-26 -91 96 0
26 44 -96 0
44 91 -96 0
26 91 -96 0
-44 96 0
-26 96 0
-91 96 0
-26 -44 -91 0
3 -24 -42 0
3 -42 -96 0
3 -24 -96 0
-3 24 42 0
-3 42 96 0
-3 24 96 0
3 -42 0
3 -24 0
3 -96 0
-24 -42 -96 0
2 -22 -52 0
2 -3 -52 0
2 -3 -22 0
-2 22 52 0
-2 3 52 0
-2 3 22 0
2 -52 0
2 -22 0
2 -3 0
-3 -22 -52 0
1 -20 -41 0
1 -2 -41 0
1 -2 -20 0
-1 20 41 0
-1 2 41 0
-1 2 20 0
1 -41 0
1 -20 0
1 -2 0
-2 -20 -41 0
-1 -21 0
1 -21 0
-1 21 0
